NAME          
ROWS
 N  OBJ
 L  c1
COLUMNS
    MARKER    'MARKER'                 'INTORG'
    x[1]      c1        957
    x[1]      OBJ       -886
    x[2]      c1        164
    x[2]      OBJ       -187
    x[3]      c1        180
    x[3]      OBJ       -195
    x[4]      c1        749
    x[4]      OBJ       -656
    x[5]      c1        265
    x[5]      OBJ       -360
    x[6]      c1        211
    x[6]      OBJ       -247
    x[7]      c1        954
    x[7]      OBJ       -919
    x[8]      c1        610
    x[8]      OBJ       -602
    x[9]      c1        816
    x[9]      OBJ       -743
    x[10]     c1        564
    x[10]     OBJ       -648
    x[11]     c1        425
    x[11]     OBJ       -430
    x[12]     c1        159
    x[12]     OBJ       -224
    x[13]     c1        106
    x[13]     OBJ       -59
    x[14]     c1        440
    x[14]     OBJ       -434
    x[15]     c1        341
    x[15]     OBJ       -379
    x[16]     c1        555
    x[16]     OBJ       -570
    x[17]     c1        837
    x[17]     OBJ       -900
    x[18]     c1        122
    x[18]     OBJ       -93
    x[19]     c1        2
    x[19]     OBJ       -66
    x[20]     c1        275
    x[20]     OBJ       -306
    x[21]     c1        763
    x[21]     OBJ       -837
    x[22]     c1        134
    x[22]     OBJ       -39
    x[23]     c1        256
    x[23]     OBJ       -332
    x[24]     c1        620
    x[24]     OBJ       -575
    x[25]     c1        719
    x[25]     OBJ       -715
    x[26]     c1        115
    x[26]     OBJ       -84
    x[27]     c1        333
    x[27]     OBJ       -244
    x[28]     c1        280
    x[28]     OBJ       -340
    x[29]     c1        396
    x[29]     OBJ       -382
    x[30]     c1        320
    x[30]     OBJ       -371
    x[31]     c1        433
    x[31]     OBJ       -529
    x[32]     c1        177
    x[32]     OBJ       -88
    x[33]     c1        205
    x[33]     OBJ       -158
    x[34]     c1        66
    x[34]     OBJ       -117
    x[35]     c1        615
    x[35]     OBJ       -552
    x[36]     c1        758
    x[36]     OBJ       -841
    x[37]     c1        690
    x[37]     OBJ       -595
    x[38]     c1        596
    x[38]     OBJ       -512
    x[39]     c1        553
    x[39]     OBJ       -637
    x[40]     c1        817
    x[40]     OBJ       -858
    x[41]     c1        877
    x[41]     OBJ       -922
    x[42]     c1        56
    x[42]     OBJ       -127
    x[43]     c1        933
    x[43]     OBJ       -956
    x[44]     c1        672
    x[44]     OBJ       -736
    x[45]     c1        213
    x[45]     OBJ       -204
    x[46]     c1        473
    x[46]     OBJ       -373
    x[47]     c1        791
    x[47]     OBJ       -833
    x[48]     c1        93
    x[48]     OBJ       -62
    x[49]     c1        997
    x[49]     OBJ       -905
    x[50]     c1        853
    x[50]     OBJ       -928
    x[51]     c1        146
    x[51]     OBJ       -56
    x[52]     c1        919
    x[52]     OBJ       -848
    x[53]     c1        418
    x[53]     OBJ       -416
    x[54]     c1        496
    x[54]     OBJ       -577
    x[55]     c1        719
    x[55]     OBJ       -687
    x[56]     c1        806
    x[56]     OBJ       -889
    x[57]     c1        142
    x[57]     OBJ       -180
    x[58]     c1        293
    x[58]     OBJ       -350
    x[59]     c1        732
    x[59]     OBJ       -646
    x[60]     c1        199
    x[60]     OBJ       -197
    x[61]     c1        222
    x[61]     OBJ       -255
    x[62]     c1        103
    x[62]     OBJ       -53
    x[63]     c1        626
    x[63]     OBJ       -567
    x[64]     c1        698
    x[64]     OBJ       -661
    x[65]     c1        387
    x[65]     OBJ       -365
    x[66]     c1        291
    x[66]     OBJ       -228
    x[67]     c1        6
    x[67]     OBJ       -19
    x[68]     c1        351
    x[68]     OBJ       -286
    x[69]     c1        306
    x[69]     OBJ       -271
    x[70]     c1        615
    x[70]     OBJ       -698
    x[71]     c1        646
    x[71]     OBJ       -735
    x[72]     c1        972
    x[72]     OBJ       -877
    x[73]     c1        642
    x[73]     OBJ       -727
    x[74]     c1        203
    x[74]     OBJ       -135
    x[75]     c1        441
    x[75]     OBJ       -352
RHS
    rhs       c1        17458
RANGES
BOUNDS
 LO bounds    x[1]      0
 PL bounds    x[1]
 LO bounds    x[2]      0
 PL bounds    x[2]
 LO bounds    x[3]      0
 PL bounds    x[3]
 LO bounds    x[4]      0
 PL bounds    x[4]
 LO bounds    x[5]      0
 PL bounds    x[5]
 LO bounds    x[6]      0
 PL bounds    x[6]
 LO bounds    x[7]      0
 PL bounds    x[7]
 LO bounds    x[8]      0
 PL bounds    x[8]
 LO bounds    x[9]      0
 PL bounds    x[9]
 LO bounds    x[10]     0
 PL bounds    x[10]
 LO bounds    x[11]     0
 PL bounds    x[11]
 LO bounds    x[12]     0
 PL bounds    x[12]
 LO bounds    x[13]     0
 PL bounds    x[13]
 LO bounds    x[14]     0
 PL bounds    x[14]
 LO bounds    x[15]     0
 PL bounds    x[15]
 LO bounds    x[16]     0
 PL bounds    x[16]
 LO bounds    x[17]     0
 PL bounds    x[17]
 LO bounds    x[18]     0
 PL bounds    x[18]
 LO bounds    x[19]     0
 PL bounds    x[19]
 LO bounds    x[20]     0
 PL bounds    x[20]
 LO bounds    x[21]     0
 PL bounds    x[21]
 LO bounds    x[22]     0
 PL bounds    x[22]
 LO bounds    x[23]     0
 PL bounds    x[23]
 LO bounds    x[24]     0
 PL bounds    x[24]
 LO bounds    x[25]     0
 PL bounds    x[25]
 LO bounds    x[26]     0
 PL bounds    x[26]
 LO bounds    x[27]     0
 PL bounds    x[27]
 LO bounds    x[28]     0
 PL bounds    x[28]
 LO bounds    x[29]     0
 PL bounds    x[29]
 LO bounds    x[30]     0
 PL bounds    x[30]
 LO bounds    x[31]     0
 PL bounds    x[31]
 LO bounds    x[32]     0
 PL bounds    x[32]
 LO bounds    x[33]     0
 PL bounds    x[33]
 LO bounds    x[34]     0
 PL bounds    x[34]
 LO bounds    x[35]     0
 PL bounds    x[35]
 LO bounds    x[36]     0
 PL bounds    x[36]
 LO bounds    x[37]     0
 PL bounds    x[37]
 LO bounds    x[38]     0
 PL bounds    x[38]
 LO bounds    x[39]     0
 PL bounds    x[39]
 LO bounds    x[40]     0
 PL bounds    x[40]
 LO bounds    x[41]     0
 PL bounds    x[41]
 LO bounds    x[42]     0
 PL bounds    x[42]
 LO bounds    x[43]     0
 PL bounds    x[43]
 LO bounds    x[44]     0
 PL bounds    x[44]
 LO bounds    x[45]     0
 PL bounds    x[45]
 LO bounds    x[46]     0
 PL bounds    x[46]
 LO bounds    x[47]     0
 PL bounds    x[47]
 LO bounds    x[48]     0
 PL bounds    x[48]
 LO bounds    x[49]     0
 PL bounds    x[49]
 LO bounds    x[50]     0
 PL bounds    x[50]
 LO bounds    x[51]     0
 PL bounds    x[51]
 LO bounds    x[52]     0
 PL bounds    x[52]
 LO bounds    x[53]     0
 PL bounds    x[53]
 LO bounds    x[54]     0
 PL bounds    x[54]
 LO bounds    x[55]     0
 PL bounds    x[55]
 LO bounds    x[56]     0
 PL bounds    x[56]
 LO bounds    x[57]     0
 PL bounds    x[57]
 LO bounds    x[58]     0
 PL bounds    x[58]
 LO bounds    x[59]     0
 PL bounds    x[59]
 LO bounds    x[60]     0
 PL bounds    x[60]
 LO bounds    x[61]     0
 PL bounds    x[61]
 LO bounds    x[62]     0
 PL bounds    x[62]
 LO bounds    x[63]     0
 PL bounds    x[63]
 LO bounds    x[64]     0
 PL bounds    x[64]
 LO bounds    x[65]     0
 PL bounds    x[65]
 LO bounds    x[66]     0
 PL bounds    x[66]
 LO bounds    x[67]     0
 PL bounds    x[67]
 LO bounds    x[68]     0
 PL bounds    x[68]
 LO bounds    x[69]     0
 PL bounds    x[69]
 LO bounds    x[70]     0
 PL bounds    x[70]
 LO bounds    x[71]     0
 PL bounds    x[71]
 LO bounds    x[72]     0
 PL bounds    x[72]
 LO bounds    x[73]     0
 PL bounds    x[73]
 LO bounds    x[74]     0
 PL bounds    x[74]
 LO bounds    x[75]     0
 PL bounds    x[75]
ENDATA
